# Solution for model GasLib-40
# Objective value = 2.2455223464783650e+01
loadshed[innode_1] 0
loadshed[innode_2] 0
loadshed[innode_3] 0
loadshed[innode_4] 0
loadshed[innode_5] 0
loadshed[innode_6] 0
loadshed[innode_7] 0
loadshed[innode_8] 0
loadshed[source_1] -2.7964427883656273e-01
loadshed[source_2] 1.1758961573685633e-01
loadshed[source_3] 3.0409517172802714e-01
loadshed[sink_1] 0
loadshed[sink_2] 0
loadshed[sink_3] 0
loadshed[sink_4] 0
loadshed[sink_5] 0
loadshed[sink_6] 0
loadshed[sink_7] 0
loadshed[sink_8] 0
loadshed[sink_9] 0
loadshed[sink_10] 0
loadshed[sink_11] 0
loadshed[sink_12] 1
loadshed[sink_13] 0
loadshed[sink_14] 0
loadshed[sink_15] 0
loadshed[sink_16] 0
loadshed[sink_17] 0
loadshed[sink_18] 0
loadshed[sink_19] 0
loadshed[sink_20] 0
loadshed[sink_21] 3.7305825007594273e-01
loadshed[sink_22] 0
loadshed[sink_23] 0
loadshed[sink_24] 0
loadshed[sink_25] 0
loadshed[sink_26] 0
loadshed[sink_27] 0
loadshed[sink_28] 0
loadshed[sink_29] 0
flow[source_1,sink_3] 2.0229931949801630e+02
flow[innode_1,sink_16] 1.6354166666666970e+01
flow[innode_6,sink_13] 4.4633790582671082e+00
flow[sink_13,sink_14] -1.1890787608399560e+01
flow[sink_14,sink_10] -2.8244954275066227e+01
flow[sink_25,sink_26] 1.5326103134634735e+02
flow[sink_26,sink_9] 8.1770833333333655e+01
flow[sink_9,sink_18] 6.5416666666666671e+01
flow[sink_26,sink_4] 5.5136031346347039e+01
flow[sink_4,sink_20] -1.6529624387130607e+01
flow[sink_18,sink_6] 4.9062500000000313e+01
flow[sink_25,innode_8] -1.6959098616467995e+02
flow[sink_6,sink_7] 0
flow[sink_6,sink_22] 3.2708333333333641e+01
flow[sink_7,sink_24] 2.6607276535216347e+01
flow[sink_22,sink_1] 1.6354166666666970e+01
flow[sink_24,sink_21] 1.0253109868549688e+01
flow[sink_21,sink_12] 0
flow[sink_7,sink_5] -4.2961443201883021e+01
flow[sink_5,sink_17] -5.9315609868549686e+01
flow[sink_17,sink_4] -5.5311489066810971e+01
flow[sink_17,sink_8] -2.0358287468405383e+01
flow[sink_3,sink_23] 16.3541666666697
flow[sink_8,sink_20] -3.6712454135072051e+01
flow[sink_25,sink_20] 6.9596245188869375e+01
flow[sink_25,sink_15] -7.4083836095471568e+01
flow[sink_15,sink_29] -1.0679216942882249e+02
flow[sink_29,sink_28] 1.6354166666667879e+01
flow[sink_29,sink_2] 0
flow[sink_2,sink_15] -1.6354166666684250e+01
flow[sink_29,innode_7] -139.500502762156
flow[innode_4,sink_19] 9.3661620941733233e+01
flow[sink_19,innode_3] 3.7725711371645374e+01
flow[innode_4,innode_5] 1.6354166666679703e+01
flow[sink_27,innode_5] -1.6354166666679703e+01
flow[sink_27,sink_19] 0
flow[sink_10,sink_11] 3.2708333333333641e+01
flow[sink_10,innode_2] -3.9581742903421159e+01
flow[sink_10,innode_3] -3.7725711371645374e+01
flow[innode_6,sink_25] -4.4633790582671082e+00
flow[sink_11,innode_1] 1.6354166666666970e+01
flow[sink_19,innode_2] 3.9581742903421159e+01
flow[source_3,innode_4] 1.1001578760841294e+02
flow[source_2,innode_7] 139.500502762156
flow[sink_3,innode_8] 1.6959098616467995e+02
pressure[innode_1] 7.4975019186478391e+01
pressure[innode_2] 7.7218779084480033e+01
pressure[innode_3] 77.1352397686209
pressure[innode_4] 81.01325
pressure[innode_5] 8.1002000741808786e+01
pressure[innode_6] 7.3794100102462764e+01
pressure[innode_7] 81.01325
pressure[innode_8] 8.0337040656059315e+01
pressure[source_1] 81.01325
pressure[source_2] 81.01325
pressure[source_3] 81.01325
pressure[sink_1] 5.2327657836394906e+01
pressure[sink_2] 7.4100086146666840e+01
pressure[sink_3] 8.0337040656059315e+01
pressure[sink_4] 5.5989877946157932e+01
pressure[sink_5] 4.9457471028357588e+01
pressure[sink_6] 5.4428735446782284e+01
pressure[sink_7] 3.1590142759676521e+01
pressure[sink_8] 5.4644226293735088e+01
pressure[sink_9] 5.8105820250240569e+01
pressure[sink_10] 7.5126720494081937e+01
pressure[sink_11] 7.4975019186478391e+01
pressure[sink_12] 1.01325
pressure[sink_13] 7.3769494239614474e+01
pressure[sink_14] 7.3790773816910857e+01
pressure[sink_15] 7.4153478896433285e+01
pressure[sink_16] 7.3953369351660712e+01
pressure[sink_17] 5.3876055218021882e+01
pressure[sink_18] 5.5738850275041912e+01
pressure[sink_19] 7.7218779084480033e+01
pressure[sink_20] 57.2025680497565
pressure[sink_21] 1.01325
pressure[sink_22] 5.3391426978749919e+01
pressure[sink_23] 8.0172322644399529e+01
pressure[sink_24] 1.1267936655189941e+00
pressure[sink_25] 7.3794100102462764e+01
pressure[sink_26] 6.3000015669951921e+01
pressure[sink_27] 8.0866291377726043e+01
pressure[sink_28] 7.6986875770086854e+01
pressure[sink_29] 7.7282158043704030e+01
interdiction[source_1,sink_3] 0
interdiction[innode_1,sink_16] 0
interdiction[innode_6,sink_13] 0
interdiction[sink_13,sink_14] 0
interdiction[sink_14,sink_10] 0
interdiction[sink_25,sink_26] 0
interdiction[sink_26,sink_9] 0
interdiction[sink_9,sink_18] 0
interdiction[sink_26,sink_4] 0
interdiction[sink_4,sink_20] 0
interdiction[sink_18,sink_6] 0
interdiction[sink_25,innode_8] 0
interdiction[sink_6,sink_7] 1
interdiction[sink_6,sink_22] 0
interdiction[sink_7,sink_24] 0
interdiction[sink_22,sink_1] 0
interdiction[sink_24,sink_21] 0
interdiction[sink_21,sink_12] 0
interdiction[sink_7,sink_5] 0
interdiction[sink_5,sink_17] 0
interdiction[sink_17,sink_4] 0
interdiction[sink_17,sink_8] 0
interdiction[sink_3,sink_23] 0
interdiction[sink_8,sink_20] 0
interdiction[sink_25,sink_20] 0
interdiction[sink_25,sink_15] 0
interdiction[sink_15,sink_29] 0
interdiction[sink_29,sink_28] 0
interdiction[sink_29,sink_2] 1
interdiction[sink_2,sink_15] 0
interdiction[sink_29,innode_7] 0
interdiction[innode_4,sink_19] 0
interdiction[sink_19,innode_3] 0
interdiction[innode_4,innode_5] 0
interdiction[sink_27,innode_5] 0
interdiction[sink_27,sink_19] 1
interdiction[sink_10,sink_11] 0
interdiction[sink_10,innode_2] 0
interdiction[sink_10,innode_3] 0
interdiction[innode_6,sink_25] 0
interdiction[sink_11,innode_1] 0
interdiction[sink_19,innode_2] 0
interdiction[source_3,innode_4] 0
interdiction[source_2,innode_7] 0
interdiction[sink_3,innode_8] 0
WCcheckFlow[source_1,sink_3] 39
WCcheckFlow[innode_1,sink_16] 1
WCcheckFlow[innode_6,sink_13] 13
WCcheckFlow[sink_13,sink_14] 12
WCcheckFlow[sink_14,sink_10] 11
WCcheckFlow[sink_25,sink_26] 15
WCcheckFlow[sink_26,sink_9] 5
WCcheckFlow[sink_9,sink_18] 4
WCcheckFlow[sink_26,sink_4] 9
WCcheckFlow[sink_4,sink_20] 1
WCcheckFlow[sink_18,sink_6] 3
WCcheckFlow[sink_25,innode_8] -36
WCcheckFlow[sink_6,sink_7] 0
WCcheckFlow[sink_6,sink_22] 2
WCcheckFlow[sink_7,sink_24] 3
WCcheckFlow[sink_22,sink_1] 1
WCcheckFlow[sink_24,sink_21] 2
WCcheckFlow[sink_21,sink_12] 1
WCcheckFlow[sink_7,sink_5] -4
WCcheckFlow[sink_5,sink_17] -5
WCcheckFlow[sink_17,sink_4] -7
WCcheckFlow[sink_17,sink_8] 1
WCcheckFlow[sink_3,sink_23] 1
WCcheckFlow[sink_8,sink_20] 0
WCcheckFlow[sink_25,sink_20] 0
WCcheckFlow[sink_25,sink_15] 6
WCcheckFlow[sink_15,sink_29] 4
WCcheckFlow[sink_29,sink_28] 1
WCcheckFlow[sink_29,sink_2] 0
WCcheckFlow[sink_2,sink_15] -1
WCcheckFlow[sink_29,innode_7] 2
WCcheckFlow[innode_4,sink_19] -4
WCcheckFlow[sink_19,innode_3] -5
WCcheckFlow[innode_4,innode_5] 2
WCcheckFlow[sink_27,innode_5] -1
WCcheckFlow[sink_27,sink_19] 0
WCcheckFlow[sink_10,sink_11] 3
WCcheckFlow[sink_10,innode_2] 1
WCcheckFlow[sink_10,innode_3] 6
WCcheckFlow[innode_6,sink_25] -14
WCcheckFlow[sink_11,innode_1] 2
WCcheckFlow[sink_19,innode_2] 0
WCcheckFlow[source_3,innode_4] -1
WCcheckFlow[source_2,innode_7] -1
WCcheckFlow[sink_3,innode_8] 37
